(set-option :print-success false)
(set-option :produce-models true)
;(set-logic QF_LIA)
;(declare-fun x () Int)
;(declare-fun y () Int)
;(assert (= (+ x (* 2 y)) 20))
;(assert (= (- x y) 2))
(set-logic QF_UF)
(declare-sort A 0)
(declare-const x A)
(declare-const y A)
(declare-fun f (A) A)
(declare-fun g (A) A)
(assert (= (f x) (g x)))
;(assert (= x y))
;(assert (distinct c d))

(check-sat)
;(get-value (x))
(get-model)
